problems/VanDerWaerdenNumbers/VanDerWaerden-models/noch/O2/lingeling/model_4-k3l4n47-solution000001.solution
language Essence 1.3

letting p be
        partition({1, 2, 5, 6, 7, 10, 17, 19, 22, 25, 26, 29, 30, 32, 33, 42, 43, 44, 46},
                  {3, 4, 8, 12, 14, 15, 27, 28, 31, 34, 35, 38, 40},
                  {9, 11, 13, 16, 18, 20, 21, 23, 24, 36, 37, 39, 41, 45, 47})
